Optimal - objective value 100.00000000
      0 y_0_1                   0                       5
      1 y_1_2                   0                       5
      2 y_2_3                   0                       5
      3 y_0_3                   1                     100
      4 y_0_2                   0                       8
      5 y_1_3                   0                       8
      6 f_0_0_3_0               5                       0
